c turning on binary mode checking
c parsing input formula with 202048 variables and 780985 clauses
c finished parsing, read 16692909 bytes from proof file
c detected empty clause; start verification via backward checking
c 18582 of 780985 clauses in core                            
c 24340 of 453800 lemmas in core using 266672 resolution steps
c 0 RAT lemmas in core; 1988 redundant literals in core lemmas
s VERIFIED
c verification time: 2.182 seconds
